
Value of objective function: 54.00000000

Actual values of the variables:
v1                              0
v3                              1
v4                              0
v5                              0
v6                              0
v7                              1
v8                              1
v9                              1
v11                             0
v12                             1
v13                             1
v14                             1
v16                             0
v17                             1
v18                             0
v19                             0
v20                             1
v21                             1
v22                             1
v23                             0
v24                             1
v25                             0
v26                             1
v27                             1
v28                             0
v29                             0
v30                             1
v31                             1
v32                             0
v33                             0
v34                             0
v35                             1
v36                             1
v37                             0
v38                             1
v39                             1
v40                             0
v41                             1
v42                             0
v43                             0
v44                             1
v47                             0
v48                             1
v50                             1
v2                              0
v10                             0
v15                             0
v46                             0
v49                             0
v45                             0
